data/lp_files/pEFS/60_9.lp
\ Model foo
\ LP format - for model browsing. Use MPS format to capture full model detail.
Minimize
  z
Subject To
 allocateEach[1]: x[1,1] + x[2,1] + x[3,1] = 1
 allocateEach[2]: x[1,2] + x[2,2] + x[3,2] = 1
 allocateEach[3]: x[1,3] + x[2,3] + x[3,3] = 1
 allocateEach[4]: x[1,4] + x[2,4] + x[3,4] = 1
 allocateEach[5]: x[1,5] + x[2,5] + x[3,5] = 1
 allocateEach[6]: x[1,6] + x[2,6] + x[3,6] = 1
 allocateEach[7]: x[1,7] + x[2,7] + x[3,7] = 1
 allocateEach[8]: x[1,8] + x[2,8] + x[3,8] = 1
 allocateEach[9]: x[1,9] + x[2,9] + x[3,9] = 1
 allocateEach[10]: x[1,10] + x[2,10] + x[3,10] = 1
 allocateEach[11]: x[1,11] + x[2,11] + x[3,11] = 1
 allocateEach[12]: x[1,12] + x[2,12] + x[3,12] = 1
 allocateEach[13]: x[1,13] + x[2,13] + x[3,13] = 1
 allocateEach[14]: x[1,14] + x[2,14] + x[3,14] = 1
 allocateEach[15]: x[1,15] + x[2,15] + x[3,15] = 1
 allocateEach[16]: x[1,16] + x[2,16] + x[3,16] = 1
 allocateEach[17]: x[1,17] + x[2,17] + x[3,17] = 1
 allocateEach[18]: x[1,18] + x[2,18] + x[3,18] = 1
 allocateEach[19]: x[1,19] + x[2,19] + x[3,19] = 1
 allocateEach[20]: x[1,20] + x[2,20] + x[3,20] = 1
 allocateAllCash: cashProportion[1] + cashProportion[2] + cashProportion[3]
   = 1
 findWorstP[1,2]: z + 0.0948307744829352 cashProportion[1]
   - 0.0948307744829352 cashProportion[2] + 0.0298432447297797 x[1,1]
   + 0.00934083128656912 x[1,2] + 0.0186626964182416 x[1,3]
   + 0.0792026628481475 x[1,4] + 0.0923272420365857 x[1,5]
   + 0.0797811305724934 x[1,6] + 0.0503077258631971 x[1,7]
   + 0.0755896103403477 x[1,8] + 0.00399237560573157 x[1,9]
   + 0.0468084702847768 x[1,10] + 0.0657272097941224 x[1,11]
   + 0.0370503835904828 x[1,12] + 0.00364150174014471 x[1,13]
   + 5.8795080179419826e-04 x[1,14] + 0.00880977894946468 x[1,15]
   + 0.0900702696038918 x[1,16] + 0.0159315701131331 x[1,17]
   + 0.0687617945775763 x[1,18] + 0.0474343533963642 x[1,19]
   + 0.0812984229642203 x[1,20] - 0.0298432447297797 x[2,1]
   - 0.00934083128656912 x[2,2] - 0.0186626964182416 x[2,3]
   - 0.0792026628481475 x[2,4] - 0.0923272420365857 x[2,5]
   - 0.0797811305724934 x[2,6] - 0.0503077258631971 x[2,7]
   - 0.0755896103403477 x[2,8] - 0.00399237560573157 x[2,9]
   - 0.0468084702847768 x[2,10] - 0.0657272097941224 x[2,11]
   - 0.0370503835904828 x[2,12] - 0.00364150174014471 x[2,13]
   - 5.8795080179419826e-04 x[2,14] - 0.00880977894946468 x[2,15]
   - 0.0900702696038918 x[2,16] - 0.0159315701131331 x[2,17]
   - 0.0687617945775763 x[2,18] - 0.0474343533963642 x[2,19]
   - 0.0812984229642203 x[2,20] >= 0
 findWorstP[1,3]: z + 0.0948307744829352 cashProportion[1]
   - 0.0948307744829352 cashProportion[3] + 0.0298432447297797 x[1,1]
   + 0.00934083128656912 x[1,2] + 0.0186626964182416 x[1,3]
   + 0.0792026628481475 x[1,4] + 0.0923272420365857 x[1,5]
   + 0.0797811305724934 x[1,6] + 0.0503077258631971 x[1,7]
   + 0.0755896103403477 x[1,8] + 0.00399237560573157 x[1,9]
   + 0.0468084702847768 x[1,10] + 0.0657272097941224 x[1,11]
   + 0.0370503835904828 x[1,12] + 0.00364150174014471 x[1,13]
   + 5.8795080179419826e-04 x[1,14] + 0.00880977894946468 x[1,15]
   + 0.0900702696038918 x[1,16] + 0.0159315701131331 x[1,17]
   + 0.0687617945775763 x[1,18] + 0.0474343533963642 x[1,19]
   + 0.0812984229642203 x[1,20] - 0.0298432447297797 x[3,1]
   - 0.00934083128656912 x[3,2] - 0.0186626964182416 x[3,3]
   - 0.0792026628481475 x[3,4] - 0.0923272420365857 x[3,5]
   - 0.0797811305724934 x[3,6] - 0.0503077258631971 x[3,7]
   - 0.0755896103403477 x[3,8] - 0.00399237560573157 x[3,9]
   - 0.0468084702847768 x[3,10] - 0.0657272097941224 x[3,11]
   - 0.0370503835904828 x[3,12] - 0.00364150174014471 x[3,13]
   - 5.8795080179419826e-04 x[3,14] - 0.00880977894946468 x[3,15]
   - 0.0900702696038918 x[3,16] - 0.0159315701131331 x[3,17]
   - 0.0687617945775763 x[3,18] - 0.0474343533963642 x[3,19]
   - 0.0812984229642203 x[3,20] >= 0
 findWorstP[2,1]: z - 0.1013797787893227 cashProportion[1]
   + 0.1013797787893227 cashProportion[2] - 0.0441306177069922 x[1,1]
   - 8.11038e-05 x[1,2] - 0.0837701112136173 x[1,3]
   - 0.006285546284938 x[1,4] - 0.0509838907531504 x[1,5]
   - 0.0810227192084267 x[1,6] - 0.00240270075730695 x[1,7]
   - 8.3131418607244596e-04 x[1,8] - 0.0750717261934934 x[1,9]
   - 0.1010046736078022 x[1,10] - 0.00321373898762153 x[1,11]
   - 0.0894271028700615 x[1,12] - 0.0648323685357718 x[1,13]
   - 0.00260546031488559 x[1,14] - 0.0765417329859386 x[1,15]
   - 0.0479729113231075 x[1,16] - 0.0670221717576212 x[1,17]
   - 0.0352396111071686 x[1,18] - 0.0171433205932745 x[1,19]
   - 0.0490373990003954 x[1,20] + 0.0441306177069922 x[2,1]
   + 8.11038e-05 x[2,2] + 0.0837701112136173 x[2,3]
   + 0.006285546284938 x[2,4] + 0.0509838907531504 x[2,5]
   + 0.0810227192084267 x[2,6] + 0.00240270075730695 x[2,7]
   + 8.3131418607244596e-04 x[2,8] + 0.0750717261934934 x[2,9]
   + 0.1010046736078022 x[2,10] + 0.00321373898762153 x[2,11]
   + 0.0894271028700615 x[2,12] + 0.0648323685357718 x[2,13]
   + 0.00260546031488559 x[2,14] + 0.0765417329859386 x[2,15]
   + 0.0479729113231075 x[2,16] + 0.0670221717576212 x[2,17]
   + 0.0352396111071686 x[2,18] + 0.0171433205932745 x[2,19]
   + 0.0490373990003954 x[2,20] >= 0
 findWorstP[2,3]: z + 0.1013797787893227 cashProportion[2]
   - 0.1013797787893227 cashProportion[3] + 0.0441306177069922 x[2,1]
   + 8.11038e-05 x[2,2] + 0.0837701112136173 x[2,3]
   + 0.006285546284938 x[2,4] + 0.0509838907531504 x[2,5]
   + 0.0810227192084267 x[2,6] + 0.00240270075730695 x[2,7]
   + 8.3131418607244596e-04 x[2,8] + 0.0750717261934934 x[2,9]
   + 0.1010046736078022 x[2,10] + 0.00321373898762153 x[2,11]
   + 0.0894271028700615 x[2,12] + 0.0648323685357718 x[2,13]
   + 0.00260546031488559 x[2,14] + 0.0765417329859386 x[2,15]
   + 0.0479729113231075 x[2,16] + 0.0670221717576212 x[2,17]
   + 0.0352396111071686 x[2,18] + 0.0171433205932745 x[2,19]
   + 0.0490373990003954 x[2,20] - 0.0441306177069922 x[3,1]
   - 8.11038e-05 x[3,2] - 0.0837701112136173 x[3,3]
   - 0.006285546284938 x[3,4] - 0.0509838907531504 x[3,5]
   - 0.0810227192084267 x[3,6] - 0.00240270075730695 x[3,7]
   - 8.3131418607244596e-04 x[3,8] - 0.0750717261934934 x[3,9]
   - 0.1010046736078022 x[3,10] - 0.00321373898762153 x[3,11]
   - 0.0894271028700615 x[3,12] - 0.0648323685357718 x[3,13]
   - 0.00260546031488559 x[3,14] - 0.0765417329859386 x[3,15]
   - 0.0479729113231075 x[3,16] - 0.0670221717576212 x[3,17]
   - 0.0352396111071686 x[3,18] - 0.0171433205932745 x[3,19]
   - 0.0490373990003954 x[3,20] >= 0
 findWorstP[3,1]: z - 0.0778137450199203 cashProportion[1]
   + 0.0778137450199203 cashProportion[3] - 0.0617296439243028 x[1,1]
   - 0.0202237923306773 x[1,2] - 0.0373272534860558 x[1,3]
   - 0.0519718002988048 x[1,4] - 0.074265438247012 x[1,5]
   - 0.0188542704183267 x[1,6] - 0.0339501369521912 x[1,7]
   - 0.0190643675298805 x[1,8] - 0.070289155876494 x[1,9]
   - 0.0447039965139442 x[1,10] - 0.0441281748007968 x[1,11]
   - 0.0183329183266932 x[1,12] - 0.0441670816733068 x[1,13]
   - 0.0580801792828685 x[1,14] - 0.0728881349601594 x[1,15]
   - 0.0704370019920319 x[1,16] - 0.0552399775896414 x[1,17]
   - 0.0331486553784861 x[1,18] - 0.057667766434263 x[1,19]
   - 0.0357165089641434 x[1,20] + 0.0617296439243028 x[3,1]
   + 0.0202237923306773 x[3,2] + 0.0373272534860558 x[3,3]
   + 0.0519718002988048 x[3,4] + 0.074265438247012 x[3,5]
   + 0.0188542704183267 x[3,6] + 0.0339501369521912 x[3,7]
   + 0.0190643675298805 x[3,8] + 0.070289155876494 x[3,9]
   + 0.0447039965139442 x[3,10] + 0.0441281748007968 x[3,11]
   + 0.0183329183266932 x[3,12] + 0.0441670816733068 x[3,13]
   + 0.0580801792828685 x[3,14] + 0.0728881349601594 x[3,15]
   + 0.0704370019920319 x[3,16] + 0.0552399775896414 x[3,17]
   + 0.0331486553784861 x[3,18] + 0.057667766434263 x[3,19]
   + 0.0357165089641434 x[3,20] >= 0
 findWorstP[3,2]: z - 0.0778137450199203 cashProportion[2]
   + 0.0778137450199203 cashProportion[3] - 0.0617296439243028 x[2,1]
   - 0.0202237923306773 x[2,2] - 0.0373272534860558 x[2,3]
   - 0.0519718002988048 x[2,4] - 0.074265438247012 x[2,5]
   - 0.0188542704183267 x[2,6] - 0.0339501369521912 x[2,7]
   - 0.0190643675298805 x[2,8] - 0.070289155876494 x[2,9]
   - 0.0447039965139442 x[2,10] - 0.0441281748007968 x[2,11]
   - 0.0183329183266932 x[2,12] - 0.0441670816733068 x[2,13]
   - 0.0580801792828685 x[2,14] - 0.0728881349601594 x[2,15]
   - 0.0704370019920319 x[2,16] - 0.0552399775896414 x[2,17]
   - 0.0331486553784861 x[2,18] - 0.057667766434263 x[2,19]
   - 0.0357165089641434 x[2,20] + 0.0617296439243028 x[3,1]
   + 0.0202237923306773 x[3,2] + 0.0373272534860558 x[3,3]
   + 0.0519718002988048 x[3,4] + 0.074265438247012 x[3,5]
   + 0.0188542704183267 x[3,6] + 0.0339501369521912 x[3,7]
   + 0.0190643675298805 x[3,8] + 0.070289155876494 x[3,9]
   + 0.0447039965139442 x[3,10] + 0.0441281748007968 x[3,11]
   + 0.0183329183266932 x[3,12] + 0.0441670816733068 x[3,13]
   + 0.0580801792828685 x[3,14] + 0.0728881349601594 x[3,15]
   + 0.0704370019920319 x[3,16] + 0.0552399775896414 x[3,17]
   + 0.0331486553784861 x[3,18] + 0.057667766434263 x[3,19]
   + 0.0357165089641434 x[3,20] >= 0
Bounds
 z <= 1
 -infinity <= cashProportion[1] <= 1
 -infinity <= cashProportion[2] <= 1
 -infinity <= cashProportion[3] <= 1
Binaries
 x[1,1] x[1,2] x[1,3] x[1,4] x[1,5] x[1,6] x[1,7] x[1,8] x[1,9] x[1,10]
 x[1,11] x[1,12] x[1,13] x[1,14] x[1,15] x[1,16] x[1,17] x[1,18] x[1,19]
 x[1,20] x[2,1] x[2,2] x[2,3] x[2,4] x[2,5] x[2,6] x[2,7] x[2,8] x[2,9]
 x[2,10] x[2,11] x[2,12] x[2,13] x[2,14] x[2,15] x[2,16] x[2,17] x[2,18]
 x[2,19] x[2,20] x[3,1] x[3,2] x[3,3] x[3,4] x[3,5] x[3,6] x[3,7] x[3,8]
 x[3,9] x[3,10] x[3,11] x[3,12] x[3,13] x[3,14] x[3,15] x[3,16] x[3,17]
 x[3,18] x[3,19] x[3,20]
End
