data/mps_files/q3/60_9.mps
NAME foo
ROWS
 N  OBJ
 E  allocateEach[1]
 E  allocateEach[2]
 E  allocateEach[3]
 E  allocateEach[4]
 E  allocateEach[5]
 E  allocateEach[6]
 E  allocateEach[7]
 E  allocateEach[8]
 E  allocateEach[9]
 E  allocateEach[10]
 E  allocateEach[11]
 E  allocateEach[12]
 E  allocateEach[13]
 E  allocateEach[14]
 E  allocateEach[15]
 E  allocateEach[16]
 E  allocateEach[17]
 E  allocateEach[18]
 E  allocateEach[19]
 E  allocateEach[20]
 E  allocateAllCash
 G  findWorstP[1,2]
 G  findWorstP[1,3]
 G  findWorstP[2,1]
 G  findWorstP[2,3]
 G  findWorstP[3,1]
 G  findWorstP[3,2]
COLUMNS
    z         OBJ       1
    z         findWorstP[1,2]  1
    z         findWorstP[1,3]  1
    z         findWorstP[2,1]  1
    z         findWorstP[2,3]  1
    z         findWorstP[3,1]  1
    z         findWorstP[3,2]  1
    cashProportion[1]  allocateAllCash  1
    cashProportion[1]  findWorstP[1,2]  9.4830774482935226e-02
    cashProportion[1]  findWorstP[1,3]  9.4830774482935226e-02
    cashProportion[1]  findWorstP[2,1]  -1.0137977878932269e-01
    cashProportion[1]  findWorstP[3,1]  -7.7813745019920347e-02
    cashProportion[2]  allocateAllCash  1
    cashProportion[2]  findWorstP[1,2]  -9.4830774482935226e-02
    cashProportion[2]  findWorstP[2,1]  1.0137977878932269e-01
    cashProportion[2]  findWorstP[2,3]  1.0137977878932269e-01
    cashProportion[2]  findWorstP[3,2]  -7.7813745019920347e-02
    cashProportion[3]  allocateAllCash  1
    cashProportion[3]  findWorstP[1,3]  -9.4830774482935226e-02
    cashProportion[3]  findWorstP[2,3]  -1.0137977878932269e-01
    cashProportion[3]  findWorstP[3,1]  7.7813745019920347e-02
    cashProportion[3]  findWorstP[3,2]  7.7813745019920347e-02
    MARKER    'MARKER'                 'INTORG'
    x[1,1]    allocateEach[1]  1
    x[1,1]    findWorstP[1,2]  2.9843244729779703e-02
    x[1,1]    findWorstP[1,3]  2.9843244729779703e-02
    x[1,1]    findWorstP[2,1]  -4.4130617706992156e-02
    x[1,1]    findWorstP[3,1]  -0.0617296439243028
    x[1,2]    allocateEach[2]  1
    x[1,2]    findWorstP[1,2]  9.3408312865691182e-03
    x[1,2]    findWorstP[1,3]  9.3408312865691182e-03
    x[1,2]    findWorstP[2,1]  -8.1103823031458144e-05
    x[1,2]    findWorstP[3,1]  -2.0223792330677295e-02
    x[1,3]    allocateEach[3]  1
    x[1,3]    findWorstP[1,2]  1.8662696418241646e-02
    x[1,3]    findWorstP[1,3]  1.8662696418241646e-02
    x[1,3]    findWorstP[2,1]  -8.3770111213617326e-02
    x[1,3]    findWorstP[3,1]  -3.7327253486055784e-02
    x[1,4]    allocateEach[4]  1
    x[1,4]    findWorstP[1,2]  7.9202662848147476e-02
    x[1,4]    findWorstP[1,3]  7.9202662848147476e-02
    x[1,4]    findWorstP[2,1]  -6.2855462849380050e-03
    x[1,4]    findWorstP[3,1]  -5.1971800298804792e-02
    x[1,5]    allocateEach[5]  1
    x[1,5]    findWorstP[1,2]  9.2327242036585710e-02
    x[1,5]    findWorstP[1,3]  9.2327242036585710e-02
    x[1,5]    findWorstP[2,1]  -5.0983890753150372e-02
    x[1,5]    findWorstP[3,1]  -7.4265438247011969e-02
    x[1,6]    allocateEach[6]  1
    x[1,6]    findWorstP[1,2]  7.9781130572493392e-02
    x[1,6]    findWorstP[1,3]  7.9781130572493392e-02
    x[1,6]    findWorstP[2,1]  -8.1022719208426672e-02
    x[1,6]    findWorstP[3,1]  -1.8854270418326696e-02
    x[1,7]    allocateEach[7]  1
    x[1,7]    findWorstP[1,2]  5.0307725863197122e-02
    x[1,7]    findWorstP[1,3]  5.0307725863197122e-02
    x[1,7]    findWorstP[2,1]  -2.4027007573069470e-03
    x[1,7]    findWorstP[3,1]  -3.3950136952191241e-02
    x[1,8]    allocateEach[8]  1
    x[1,8]    findWorstP[1,2]  7.5589610340347654e-02
    x[1,8]    findWorstP[1,3]  7.5589610340347654e-02
    x[1,8]    findWorstP[2,1]  -0.000831314186072446
    x[1,8]    findWorstP[3,1]  -1.9064367529880482e-02
    x[1,9]    allocateEach[9]  1
    x[1,9]    findWorstP[1,2]  3.9923756057315719e-03
    x[1,9]    findWorstP[1,3]  3.9923756057315719e-03
    x[1,9]    findWorstP[2,1]  -7.5071726193493435e-02
    x[1,9]    findWorstP[3,1]  -7.0289155876494036e-02
    x[1,10]   allocateEach[10]  1
    x[1,10]   findWorstP[1,2]  4.6808470284776811e-02
    x[1,10]   findWorstP[1,3]  4.6808470284776811e-02
    x[1,10]   findWorstP[2,1]  -1.0100467360780217e-01
    x[1,10]   findWorstP[3,1]  -4.4703996513944230e-02
    x[1,11]   allocateEach[11]  1
    x[1,11]   findWorstP[1,2]  6.5727209794122388e-02
    x[1,11]   findWorstP[1,3]  6.5727209794122388e-02
    x[1,11]   findWorstP[2,1]  -3.2137389876215282e-03
    x[1,11]   findWorstP[3,1]  -4.4128174800796824e-02
    x[1,12]   allocateEach[12]  1
    x[1,12]   findWorstP[1,2]  3.7050383590482780e-02
    x[1,12]   findWorstP[1,3]  3.7050383590482780e-02
    x[1,12]   findWorstP[2,1]  -8.9427102870061517e-02
    x[1,12]   findWorstP[3,1]  -1.8332918326693232e-02
    x[1,13]   allocateEach[13]  1
    x[1,13]   findWorstP[1,2]  3.6415017401447113e-03
    x[1,13]   findWorstP[1,3]  3.6415017401447113e-03
    x[1,13]   findWorstP[2,1]  -6.4832368535771845e-02
    x[1,13]   findWorstP[3,1]  -4.4167081673306782e-02
    x[1,14]   allocateEach[14]  1
    x[1,14]   findWorstP[1,2]  5.8795080179419826e-04
    x[1,14]   findWorstP[1,3]  5.8795080179419826e-04
    x[1,14]   findWorstP[2,1]  -2.6054603148855924e-03
    x[1,14]   findWorstP[3,1]  -5.8080179282868530e-02
    x[1,15]   allocateEach[15]  1
    x[1,15]   findWorstP[1,2]  0.00880977894946468
    x[1,15]   findWorstP[1,3]  0.00880977894946468
    x[1,15]   findWorstP[2,1]  -7.6541732985938610e-02
    x[1,15]   findWorstP[3,1]  -7.2888134960159376e-02
    x[1,16]   allocateEach[16]  1
    x[1,16]   findWorstP[1,2]  9.0070269603891848e-02
    x[1,16]   findWorstP[1,3]  9.0070269603891848e-02
    x[1,16]   findWorstP[2,1]  -4.7972911323107485e-02
    x[1,16]   findWorstP[3,1]  -7.0437001992031886e-02
    x[1,17]   allocateEach[17]  1
    x[1,17]   findWorstP[1,2]  1.5931570113133113e-02
    x[1,17]   findWorstP[1,3]  1.5931570113133113e-02
    x[1,17]   findWorstP[2,1]  -6.7022171757621221e-02
    x[1,17]   findWorstP[3,1]  -5.5239977589641442e-02
    x[1,18]   allocateEach[18]  1
    x[1,18]   findWorstP[1,2]  6.8761794577576307e-02
    x[1,18]   findWorstP[1,3]  6.8761794577576307e-02
    x[1,18]   findWorstP[2,1]  -3.5239611107168563e-02
    x[1,18]   findWorstP[3,1]  -3.3148655378486061e-02
    x[1,19]   allocateEach[19]  1
    x[1,19]   findWorstP[1,2]  4.7434353396364183e-02
    x[1,19]   findWorstP[1,3]  4.7434353396364183e-02
    x[1,19]   findWorstP[2,1]  -1.7143320593274464e-02
    x[1,19]   findWorstP[3,1]  -5.7667766434262954e-02
    x[1,20]   allocateEach[20]  1
    x[1,20]   findWorstP[1,2]  8.1298422964220338e-02
    x[1,20]   findWorstP[1,3]  8.1298422964220338e-02
    x[1,20]   findWorstP[2,1]  -4.9037399000395374e-02
    x[1,20]   findWorstP[3,1]  -3.5716508964143433e-02
    x[2,1]    allocateEach[1]  1
    x[2,1]    findWorstP[1,2]  -2.9843244729779703e-02
    x[2,1]    findWorstP[2,1]  4.4130617706992156e-02
    x[2,1]    findWorstP[2,3]  4.4130617706992156e-02
    x[2,1]    findWorstP[3,2]  -0.0617296439243028
    x[2,2]    allocateEach[2]  1
    x[2,2]    findWorstP[1,2]  -9.3408312865691182e-03
    x[2,2]    findWorstP[2,1]  8.1103823031458144e-05
    x[2,2]    findWorstP[2,3]  8.1103823031458144e-05
    x[2,2]    findWorstP[3,2]  -2.0223792330677295e-02
    x[2,3]    allocateEach[3]  1
    x[2,3]    findWorstP[1,2]  -1.8662696418241646e-02
    x[2,3]    findWorstP[2,1]  8.3770111213617326e-02
    x[2,3]    findWorstP[2,3]  8.3770111213617326e-02
    x[2,3]    findWorstP[3,2]  -3.7327253486055784e-02
    x[2,4]    allocateEach[4]  1
    x[2,4]    findWorstP[1,2]  -7.9202662848147476e-02
    x[2,4]    findWorstP[2,1]  6.2855462849380050e-03
    x[2,4]    findWorstP[2,3]  6.2855462849380050e-03
    x[2,4]    findWorstP[3,2]  -5.1971800298804792e-02
    x[2,5]    allocateEach[5]  1
    x[2,5]    findWorstP[1,2]  -9.2327242036585710e-02
    x[2,5]    findWorstP[2,1]  5.0983890753150372e-02
    x[2,5]    findWorstP[2,3]  5.0983890753150372e-02
    x[2,5]    findWorstP[3,2]  -7.4265438247011969e-02
    x[2,6]    allocateEach[6]  1
    x[2,6]    findWorstP[1,2]  -7.9781130572493392e-02
    x[2,6]    findWorstP[2,1]  8.1022719208426672e-02
    x[2,6]    findWorstP[2,3]  8.1022719208426672e-02
    x[2,6]    findWorstP[3,2]  -1.8854270418326696e-02
    x[2,7]    allocateEach[7]  1
    x[2,7]    findWorstP[1,2]  -5.0307725863197122e-02
    x[2,7]    findWorstP[2,1]  2.4027007573069470e-03
    x[2,7]    findWorstP[2,3]  2.4027007573069470e-03
    x[2,7]    findWorstP[3,2]  -3.3950136952191241e-02
    x[2,8]    allocateEach[8]  1
    x[2,8]    findWorstP[1,2]  -7.5589610340347654e-02
    x[2,8]    findWorstP[2,1]  0.000831314186072446
    x[2,8]    findWorstP[2,3]  0.000831314186072446
    x[2,8]    findWorstP[3,2]  -1.9064367529880482e-02
    x[2,9]    allocateEach[9]  1
    x[2,9]    findWorstP[1,2]  -3.9923756057315719e-03
    x[2,9]    findWorstP[2,1]  7.5071726193493435e-02
    x[2,9]    findWorstP[2,3]  7.5071726193493435e-02
    x[2,9]    findWorstP[3,2]  -7.0289155876494036e-02
    x[2,10]   allocateEach[10]  1
    x[2,10]   findWorstP[1,2]  -4.6808470284776811e-02
    x[2,10]   findWorstP[2,1]  1.0100467360780217e-01
    x[2,10]   findWorstP[2,3]  1.0100467360780217e-01
    x[2,10]   findWorstP[3,2]  -4.4703996513944230e-02
    x[2,11]   allocateEach[11]  1
    x[2,11]   findWorstP[1,2]  -6.5727209794122388e-02
    x[2,11]   findWorstP[2,1]  3.2137389876215282e-03
    x[2,11]   findWorstP[2,3]  3.2137389876215282e-03
    x[2,11]   findWorstP[3,2]  -4.4128174800796824e-02
    x[2,12]   allocateEach[12]  1
    x[2,12]   findWorstP[1,2]  -3.7050383590482780e-02
    x[2,12]   findWorstP[2,1]  8.9427102870061517e-02
    x[2,12]   findWorstP[2,3]  8.9427102870061517e-02
    x[2,12]   findWorstP[3,2]  -1.8332918326693232e-02
    x[2,13]   allocateEach[13]  1
    x[2,13]   findWorstP[1,2]  -3.6415017401447113e-03
    x[2,13]   findWorstP[2,1]  6.4832368535771845e-02
    x[2,13]   findWorstP[2,3]  6.4832368535771845e-02
    x[2,13]   findWorstP[3,2]  -4.4167081673306782e-02
    x[2,14]   allocateEach[14]  1
    x[2,14]   findWorstP[1,2]  -5.8795080179419826e-04
    x[2,14]   findWorstP[2,1]  2.6054603148855924e-03
    x[2,14]   findWorstP[2,3]  2.6054603148855924e-03
    x[2,14]   findWorstP[3,2]  -5.8080179282868530e-02
    x[2,15]   allocateEach[15]  1
    x[2,15]   findWorstP[1,2]  -0.00880977894946468
    x[2,15]   findWorstP[2,1]  7.6541732985938610e-02
    x[2,15]   findWorstP[2,3]  7.6541732985938610e-02
    x[2,15]   findWorstP[3,2]  -7.2888134960159376e-02
    x[2,16]   allocateEach[16]  1
    x[2,16]   findWorstP[1,2]  -9.0070269603891848e-02
    x[2,16]   findWorstP[2,1]  4.7972911323107485e-02
    x[2,16]   findWorstP[2,3]  4.7972911323107485e-02
    x[2,16]   findWorstP[3,2]  -7.0437001992031886e-02
    x[2,17]   allocateEach[17]  1
    x[2,17]   findWorstP[1,2]  -1.5931570113133113e-02
    x[2,17]   findWorstP[2,1]  6.7022171757621221e-02
    x[2,17]   findWorstP[2,3]  6.7022171757621221e-02
    x[2,17]   findWorstP[3,2]  -5.5239977589641442e-02
    x[2,18]   allocateEach[18]  1
    x[2,18]   findWorstP[1,2]  -6.8761794577576307e-02
    x[2,18]   findWorstP[2,1]  3.5239611107168563e-02
    x[2,18]   findWorstP[2,3]  3.5239611107168563e-02
    x[2,18]   findWorstP[3,2]  -3.3148655378486061e-02
    x[2,19]   allocateEach[19]  1
    x[2,19]   findWorstP[1,2]  -4.7434353396364183e-02
    x[2,19]   findWorstP[2,1]  1.7143320593274464e-02
    x[2,19]   findWorstP[2,3]  1.7143320593274464e-02
    x[2,19]   findWorstP[3,2]  -5.7667766434262954e-02
    x[2,20]   allocateEach[20]  1
    x[2,20]   findWorstP[1,2]  -8.1298422964220338e-02
    x[2,20]   findWorstP[2,1]  4.9037399000395374e-02
    x[2,20]   findWorstP[2,3]  4.9037399000395374e-02
    x[2,20]   findWorstP[3,2]  -3.5716508964143433e-02
    x[3,1]    allocateEach[1]  1
    x[3,1]    findWorstP[1,3]  -2.9843244729779703e-02
    x[3,1]    findWorstP[2,3]  -4.4130617706992156e-02
    x[3,1]    findWorstP[3,1]  0.0617296439243028
    x[3,1]    findWorstP[3,2]  0.0617296439243028
    x[3,2]    allocateEach[2]  1
    x[3,2]    findWorstP[1,3]  -9.3408312865691182e-03
    x[3,2]    findWorstP[2,3]  -8.1103823031458144e-05
    x[3,2]    findWorstP[3,1]  2.0223792330677295e-02
    x[3,2]    findWorstP[3,2]  2.0223792330677295e-02
    x[3,3]    allocateEach[3]  1
    x[3,3]    findWorstP[1,3]  -1.8662696418241646e-02
    x[3,3]    findWorstP[2,3]  -8.3770111213617326e-02
    x[3,3]    findWorstP[3,1]  3.7327253486055784e-02
    x[3,3]    findWorstP[3,2]  3.7327253486055784e-02
    x[3,4]    allocateEach[4]  1
    x[3,4]    findWorstP[1,3]  -7.9202662848147476e-02
    x[3,4]    findWorstP[2,3]  -6.2855462849380050e-03
    x[3,4]    findWorstP[3,1]  5.1971800298804792e-02
    x[3,4]    findWorstP[3,2]  5.1971800298804792e-02
    x[3,5]    allocateEach[5]  1
    x[3,5]    findWorstP[1,3]  -9.2327242036585710e-02
    x[3,5]    findWorstP[2,3]  -5.0983890753150372e-02
    x[3,5]    findWorstP[3,1]  7.4265438247011969e-02
    x[3,5]    findWorstP[3,2]  7.4265438247011969e-02
    x[3,6]    allocateEach[6]  1
    x[3,6]    findWorstP[1,3]  -7.9781130572493392e-02
    x[3,6]    findWorstP[2,3]  -8.1022719208426672e-02
    x[3,6]    findWorstP[3,1]  1.8854270418326696e-02
    x[3,6]    findWorstP[3,2]  1.8854270418326696e-02
    x[3,7]    allocateEach[7]  1
    x[3,7]    findWorstP[1,3]  -5.0307725863197122e-02
    x[3,7]    findWorstP[2,3]  -2.4027007573069470e-03
    x[3,7]    findWorstP[3,1]  3.3950136952191241e-02
    x[3,7]    findWorstP[3,2]  3.3950136952191241e-02
    x[3,8]    allocateEach[8]  1
    x[3,8]    findWorstP[1,3]  -7.5589610340347654e-02
    x[3,8]    findWorstP[2,3]  -0.000831314186072446
    x[3,8]    findWorstP[3,1]  1.9064367529880482e-02
    x[3,8]    findWorstP[3,2]  1.9064367529880482e-02
    x[3,9]    allocateEach[9]  1
    x[3,9]    findWorstP[1,3]  -3.9923756057315719e-03
    x[3,9]    findWorstP[2,3]  -7.5071726193493435e-02
    x[3,9]    findWorstP[3,1]  7.0289155876494036e-02
    x[3,9]    findWorstP[3,2]  7.0289155876494036e-02
    x[3,10]   allocateEach[10]  1
    x[3,10]   findWorstP[1,3]  -4.6808470284776811e-02
    x[3,10]   findWorstP[2,3]  -1.0100467360780217e-01
    x[3,10]   findWorstP[3,1]  4.4703996513944230e-02
    x[3,10]   findWorstP[3,2]  4.4703996513944230e-02
    x[3,11]   allocateEach[11]  1
    x[3,11]   findWorstP[1,3]  -6.5727209794122388e-02
    x[3,11]   findWorstP[2,3]  -3.2137389876215282e-03
    x[3,11]   findWorstP[3,1]  4.4128174800796824e-02
    x[3,11]   findWorstP[3,2]  4.4128174800796824e-02
    x[3,12]   allocateEach[12]  1
    x[3,12]   findWorstP[1,3]  -3.7050383590482780e-02
    x[3,12]   findWorstP[2,3]  -8.9427102870061517e-02
    x[3,12]   findWorstP[3,1]  1.8332918326693232e-02
    x[3,12]   findWorstP[3,2]  1.8332918326693232e-02
    x[3,13]   allocateEach[13]  1
    x[3,13]   findWorstP[1,3]  -3.6415017401447113e-03
    x[3,13]   findWorstP[2,3]  -6.4832368535771845e-02
    x[3,13]   findWorstP[3,1]  4.4167081673306782e-02
    x[3,13]   findWorstP[3,2]  4.4167081673306782e-02
    x[3,14]   allocateEach[14]  1
    x[3,14]   findWorstP[1,3]  -5.8795080179419826e-04
    x[3,14]   findWorstP[2,3]  -2.6054603148855924e-03
    x[3,14]   findWorstP[3,1]  5.8080179282868530e-02
    x[3,14]   findWorstP[3,2]  5.8080179282868530e-02
    x[3,15]   allocateEach[15]  1
    x[3,15]   findWorstP[1,3]  -0.00880977894946468
    x[3,15]   findWorstP[2,3]  -7.6541732985938610e-02
    x[3,15]   findWorstP[3,1]  7.2888134960159376e-02
    x[3,15]   findWorstP[3,2]  7.2888134960159376e-02
    x[3,16]   allocateEach[16]  1
    x[3,16]   findWorstP[1,3]  -9.0070269603891848e-02
    x[3,16]   findWorstP[2,3]  -4.7972911323107485e-02
    x[3,16]   findWorstP[3,1]  7.0437001992031886e-02
    x[3,16]   findWorstP[3,2]  7.0437001992031886e-02
    x[3,17]   allocateEach[17]  1
    x[3,17]   findWorstP[1,3]  -1.5931570113133113e-02
    x[3,17]   findWorstP[2,3]  -6.7022171757621221e-02
    x[3,17]   findWorstP[3,1]  5.5239977589641442e-02
    x[3,17]   findWorstP[3,2]  5.5239977589641442e-02
    x[3,18]   allocateEach[18]  1
    x[3,18]   findWorstP[1,3]  -6.8761794577576307e-02
    x[3,18]   findWorstP[2,3]  -3.5239611107168563e-02
    x[3,18]   findWorstP[3,1]  3.3148655378486061e-02
    x[3,18]   findWorstP[3,2]  3.3148655378486061e-02
    x[3,19]   allocateEach[19]  1
    x[3,19]   findWorstP[1,3]  -4.7434353396364183e-02
    x[3,19]   findWorstP[2,3]  -1.7143320593274464e-02
    x[3,19]   findWorstP[3,1]  5.7667766434262954e-02
    x[3,19]   findWorstP[3,2]  5.7667766434262954e-02
    x[3,20]   allocateEach[20]  1
    x[3,20]   findWorstP[1,3]  -8.1298422964220338e-02
    x[3,20]   findWorstP[2,3]  -4.9037399000395374e-02
    x[3,20]   findWorstP[3,1]  3.5716508964143433e-02
    x[3,20]   findWorstP[3,2]  3.5716508964143433e-02
    MARKER    'MARKER'                 'INTEND'
RHS
    RHS1      allocateEach[1]  1
    RHS1      allocateEach[2]  1
    RHS1      allocateEach[3]  1
    RHS1      allocateEach[4]  1
    RHS1      allocateEach[5]  1
    RHS1      allocateEach[6]  1
    RHS1      allocateEach[7]  1
    RHS1      allocateEach[8]  1
    RHS1      allocateEach[9]  1
    RHS1      allocateEach[10]  1
    RHS1      allocateEach[11]  1
    RHS1      allocateEach[12]  1
    RHS1      allocateEach[13]  1
    RHS1      allocateEach[14]  1
    RHS1      allocateEach[15]  1
    RHS1      allocateEach[16]  1
    RHS1      allocateEach[17]  1
    RHS1      allocateEach[18]  1
    RHS1      allocateEach[19]  1
    RHS1      allocateEach[20]  1
    RHS1      allocateAllCash  1
BOUNDS
 UP BND1      z         1
 MI BND1      cashProportion[1]
 UP BND1      cashProportion[1]  1
 MI BND1      cashProportion[2]
 UP BND1      cashProportion[2]  1
 MI BND1      cashProportion[3]
 UP BND1      cashProportion[3]  1
 BV BND1      x[1,1]  
 BV BND1      x[1,2]  
 BV BND1      x[1,3]  
 BV BND1      x[1,4]  
 BV BND1      x[1,5]  
 BV BND1      x[1,6]  
 BV BND1      x[1,7]  
 BV BND1      x[1,8]  
 BV BND1      x[1,9]  
 BV BND1      x[1,10] 
 BV BND1      x[1,11] 
 BV BND1      x[1,12] 
 BV BND1      x[1,13] 
 BV BND1      x[1,14] 
 BV BND1      x[1,15] 
 BV BND1      x[1,16] 
 BV BND1      x[1,17] 
 BV BND1      x[1,18] 
 BV BND1      x[1,19] 
 BV BND1      x[1,20] 
 BV BND1      x[2,1]  
 BV BND1      x[2,2]  
 BV BND1      x[2,3]  
 BV BND1      x[2,4]  
 BV BND1      x[2,5]  
 BV BND1      x[2,6]  
 BV BND1      x[2,7]  
 BV BND1      x[2,8]  
 BV BND1      x[2,9]  
 BV BND1      x[2,10] 
 BV BND1      x[2,11] 
 BV BND1      x[2,12] 
 BV BND1      x[2,13] 
 BV BND1      x[2,14] 
 BV BND1      x[2,15] 
 BV BND1      x[2,16] 
 BV BND1      x[2,17] 
 BV BND1      x[2,18] 
 BV BND1      x[2,19] 
 BV BND1      x[2,20] 
 BV BND1      x[3,1]  
 BV BND1      x[3,2]  
 BV BND1      x[3,3]  
 BV BND1      x[3,4]  
 BV BND1      x[3,5]  
 BV BND1      x[3,6]  
 BV BND1      x[3,7]  
 BV BND1      x[3,8]  
 BV BND1      x[3,9]  
 BV BND1      x[3,10] 
 BV BND1      x[3,11] 
 BV BND1      x[3,12] 
 BV BND1      x[3,13] 
 BV BND1      x[3,14] 
 BV BND1      x[3,15] 
 BV BND1      x[3,16] 
 BV BND1      x[3,17] 
 BV BND1      x[3,18] 
 BV BND1      x[3,19] 
 BV BND1      x[3,20] 
ENDATA
